100 10
931 595
688 260
280 885
975 325
387 266
541 244
528 883
796 313
370 675
781 426
363 765
664 181
418 547
349 574
189 590
682 496
331 371
378 161
553 450
473 201
901 435
655 535
302 99
676 220
869 527
345 745
984 300
264 487
539 443
595 617
542 606
249 822
515 459
308 785
300 617
725 569
623 391
688 272
678 326
995 403
666 618
956 364
842 333
706 435
667 393
306 556
756 264
496 629
151 794
443 537
382 398
601 746
284 209
514 655
313 601
427 803
572 656
411 599
226 804
538 257
201 58
479 585
220 814
601 564
557 184
807 371
489 139
806 263
252 171
140 611
551 565
108 754
189 416
338 693
430 606
403 607
382 658
731 122
460 628
606 507
548 837
876 326
427 312
171 211
184 635
901 394
352 340
454 532
343 215
380 564
939 582
718 761
684 589
567 451
177 180
557 531
535 778
929 376
428 496
287 626
